(set-logic QF_LRA)
(declare-fun T1 () Real )
(declare-fun T2 () Real )
(declare-fun T3 () Real )
(declare-fun T4 () Real )
(declare-fun T5 () Real )
(declare-fun T6 () Real )
(declare-fun T7 () Real )
(declare-fun T8 () Real )
(declare-fun Z () Real )
(assert ( and 
(or ( <= ( + T1 21 ) T2 ) ( <= ( + T2 65 ) T1 ) )
(or ( <= ( + T1 35 )  ( + T2 65 ) ) ( <= ( + T2 72 )( + T1 21 ) ) )
(or ( <= ( + T1 73 )  ( + T2 72 ) ) ( <= ( + T2 74 )( + T1 35 ) ) )
(or ( <= ( + T1 139 )  ( + T2 74 ) ) ( <= ( + T2 134 )( + T1 73 ) ) )
(or ( <= ( + T1 162 )  ( + T2 134 ) ) ( <= ( + T2 209 )( + T1 139 ) ) )
(or ( <= ( + T1 198 )  ( + T2 209 ) ) ( <= ( + T2 231 )( + T1 162 ) ) )
(or ( <= ( + T1 286 )  ( + T2 231 ) ) ( <= ( + T2 329 )( + T1 198 ) ) )
(or ( <= ( + T1 328 )  ( + T2 329 ) ) ( <= ( + T2 342 )( + T1 286 ) ) )
(or ( <= ( + T1 375 )  ( + T2 342 ) ) ( <= ( + T2 405 )( + T1 328 ) ) )
(or ( <= ( + T1 472 )  ( + T2 405 ) ) ( <= ( + T2 462 )( + T1 375 ) ) )
(or ( <= ( + T1 21 ) T3 ) ( <= ( + T3 73 ) T1 ) )
(or ( <= ( + T1 35 )  ( + T3 73 ) ) ( <= ( + T3 131 )( + T1 21 ) ) )
(or ( <= ( + T1 73 )  ( + T3 131 ) ) ( <= ( + T3 183 )( + T1 35 ) ) )
(or ( <= ( + T1 139 )  ( + T3 183 ) ) ( <= ( + T3 195 )( + T1 73 ) ) )
(or ( <= ( + T1 162 )  ( + T3 195 ) ) ( <= ( + T3 217 )( + T1 139 ) ) )
(or ( <= ( + T1 198 )  ( + T3 217 ) ) ( <= ( + T3 245 )( + T1 162 ) ) )
(or ( <= ( + T1 286 )  ( + T3 245 ) ) ( <= ( + T3 286 )( + T1 198 ) ) )
(or ( <= ( + T1 328 )  ( + T3 286 ) ) ( <= ( + T3 331 )( + T1 286 ) ) )
(or ( <= ( + T1 375 )  ( + T3 331 ) ) ( <= ( + T3 364 )( + T1 328 ) ) )
(or ( <= ( + T1 472 )  ( + T3 364 ) ) ( <= ( + T3 457 )( + T1 375 ) ) )
(or ( <= ( + T1 21 ) T4 ) ( <= ( + T4 46 ) T1 ) )
(or ( <= ( + T1 35 )  ( + T4 46 ) ) ( <= ( + T4 51 )( + T1 21 ) ) )
(or ( <= ( + T1 73 )  ( + T4 51 ) ) ( <= ( + T4 57 )( + T1 35 ) ) )
(or ( <= ( + T1 139 )  ( + T4 57 ) ) ( <= ( + T4 141 )( + T1 73 ) ) )
(or ( <= ( + T1 162 )  ( + T4 141 ) ) ( <= ( + T4 163 )( + T1 139 ) ) )
(or ( <= ( + T1 198 )  ( + T4 163 ) ) ( <= ( + T4 243 )( + T1 162 ) ) )
(or ( <= ( + T1 286 )  ( + T4 243 ) ) ( <= ( + T4 314 )( + T1 198 ) ) )
(or ( <= ( + T1 328 )  ( + T4 314 ) ) ( <= ( + T4 324 )( + T1 286 ) ) )
(or ( <= ( + T1 375 )  ( + T4 324 ) ) ( <= ( + T4 398 )( + T1 328 ) ) )
(or ( <= ( + T1 472 )  ( + T4 398 ) ) ( <= ( + T4 415 )( + T1 375 ) ) )
(or ( <= ( + T1 21 ) T5 ) ( <= ( + T5 58 ) T1 ) )
(or ( <= ( + T1 35 )  ( + T5 58 ) ) ( <= ( + T5 148 )( + T1 21 ) ) )
(or ( <= ( + T1 73 )  ( + T5 148 ) ) ( <= ( + T5 223 )( + T1 35 ) ) )
(or ( <= ( + T1 139 )  ( + T5 223 ) ) ( <= ( + T5 234 )( + T1 73 ) ) )
(or ( <= ( + T1 162 )  ( + T5 234 ) ) ( <= ( + T5 284 )( + T1 139 ) ) )
(or ( <= ( + T1 198 )  ( + T5 284 ) ) ( <= ( + T5 285 )( + T1 162 ) ) )
(or ( <= ( + T1 286 )  ( + T5 285 ) ) ( <= ( + T5 318 )( + T1 198 ) ) )
(or ( <= ( + T1 328 )  ( + T5 318 ) ) ( <= ( + T5 417 )( + T1 286 ) ) )
(or ( <= ( + T1 375 )  ( + T5 417 ) ) ( <= ( + T5 431 )( + T1 328 ) ) )
(or ( <= ( + T1 472 )  ( + T5 431 ) ) ( <= ( + T5 478 )( + T1 375 ) ) )
(or ( <= ( + T1 21 ) T6 ) ( <= ( + T6 8 ) T1 ) )
(or ( <= ( + T1 35 )  ( + T6 8 ) ) ( <= ( + T6 46 )( + T1 21 ) ) )
(or ( <= ( + T1 73 )  ( + T6 46 ) ) ( <= ( + T6 103 )( + T1 35 ) ) )
(or ( <= ( + T1 139 )  ( + T6 103 ) ) ( <= ( + T6 162 )( + T1 73 ) ) )
(or ( <= ( + T1 162 )  ( + T6 162 ) ) ( <= ( + T6 163 )( + T1 139 ) ) )
(or ( <= ( + T1 198 )  ( + T6 163 ) ) ( <= ( + T6 241 )( + T1 162 ) ) )
(or ( <= ( + T1 286 )  ( + T6 241 ) ) ( <= ( + T6 279 )( + T1 198 ) ) )
(or ( <= ( + T1 328 )  ( + T6 279 ) ) ( <= ( + T6 320 )( + T1 286 ) ) )
(or ( <= ( + T1 375 )  ( + T6 320 ) ) ( <= ( + T6 394 )( + T1 328 ) ) )
(or ( <= ( + T1 472 )  ( + T6 394 ) ) ( <= ( + T6 416 )( + T1 375 ) ) )
(or ( <= ( + T1 21 ) T7 ) ( <= ( + T7 85 ) T1 ) )
(or ( <= ( + T1 35 )  ( + T7 85 ) ) ( <= ( + T7 105 )( + T1 21 ) ) )
(or ( <= ( + T1 73 )  ( + T7 105 ) ) ( <= ( + T7 131 )( + T1 35 ) ) )
(or ( <= ( + T1 139 )  ( + T7 131 ) ) ( <= ( + T7 173 )( + T1 73 ) ) )
(or ( <= ( + T1 162 )  ( + T7 173 ) ) ( <= ( + T7 228 )( + T1 139 ) ) )
(or ( <= ( + T1 198 )  ( + T7 228 ) ) ( <= ( + T7 276 )( + T1 162 ) ) )
(or ( <= ( + T1 286 )  ( + T7 276 ) ) ( <= ( + T7 298 )( + T1 198 ) ) )
(or ( <= ( + T1 328 )  ( + T7 298 ) ) ( <= ( + T7 323 )( + T1 286 ) ) )
(or ( <= ( + T1 375 )  ( + T7 323 ) ) ( <= ( + T7 332 )( + T1 328 ) ) )
(or ( <= ( + T1 472 )  ( + T7 332 ) ) ( <= ( + T7 379 )( + T1 375 ) ) )
(or ( <= ( + T1 21 ) T8 ) ( <= ( + T8 93 ) T1 ) )
(or ( <= ( + T1 35 )  ( + T8 93 ) ) ( <= ( + T8 111 )( + T1 21 ) ) )
(or ( <= ( + T1 73 )  ( + T8 111 ) ) ( <= ( + T8 147 )( + T1 35 ) ) )
(or ( <= ( + T1 139 )  ( + T8 147 ) ) ( <= ( + T8 215 )( + T1 73 ) ) )
(or ( <= ( + T1 162 )  ( + T8 215 ) ) ( <= ( + T8 295 )( + T1 139 ) ) )
(or ( <= ( + T1 198 )  ( + T8 295 ) ) ( <= ( + T8 332 )( + T1 162 ) ) )
(or ( <= ( + T1 286 )  ( + T8 332 ) ) ( <= ( + T8 400 )( + T1 198 ) ) )
(or ( <= ( + T1 328 )  ( + T8 400 ) ) ( <= ( + T8 412 )( + T1 286 ) ) )
(or ( <= ( + T1 375 )  ( + T8 412 ) ) ( <= ( + T8 500 )( + T1 328 ) ) )
(or ( <= ( + T1 472 )  ( + T8 500 ) ) ( <= ( + T8 533 )( + T1 375 ) ) )
(or ( <= ( + T2 65 ) T3 ) ( <= ( + T3 73 ) T2 ) )
(or ( <= ( + T2 72 )  ( + T3 73 ) ) ( <= ( + T3 131 )( + T2 65 ) ) )
(or ( <= ( + T2 74 )  ( + T3 131 ) ) ( <= ( + T3 183 )( + T2 72 ) ) )
(or ( <= ( + T2 134 )  ( + T3 183 ) ) ( <= ( + T3 195 )( + T2 74 ) ) )
(or ( <= ( + T2 209 )  ( + T3 195 ) ) ( <= ( + T3 217 )( + T2 134 ) ) )
(or ( <= ( + T2 231 )  ( + T3 217 ) ) ( <= ( + T3 245 )( + T2 209 ) ) )
(or ( <= ( + T2 329 )  ( + T3 245 ) ) ( <= ( + T3 286 )( + T2 231 ) ) )
(or ( <= ( + T2 342 )  ( + T3 286 ) ) ( <= ( + T3 331 )( + T2 329 ) ) )
(or ( <= ( + T2 405 )  ( + T3 331 ) ) ( <= ( + T3 364 )( + T2 342 ) ) )
(or ( <= ( + T2 462 )  ( + T3 364 ) ) ( <= ( + T3 457 )( + T2 405 ) ) )
(or ( <= ( + T2 65 ) T4 ) ( <= ( + T4 46 ) T2 ) )
(or ( <= ( + T2 72 )  ( + T4 46 ) ) ( <= ( + T4 51 )( + T2 65 ) ) )
(or ( <= ( + T2 74 )  ( + T4 51 ) ) ( <= ( + T4 57 )( + T2 72 ) ) )
(or ( <= ( + T2 134 )  ( + T4 57 ) ) ( <= ( + T4 141 )( + T2 74 ) ) )
(or ( <= ( + T2 209 )  ( + T4 141 ) ) ( <= ( + T4 163 )( + T2 134 ) ) )
(or ( <= ( + T2 231 )  ( + T4 163 ) ) ( <= ( + T4 243 )( + T2 209 ) ) )
(or ( <= ( + T2 329 )  ( + T4 243 ) ) ( <= ( + T4 314 )( + T2 231 ) ) )
(or ( <= ( + T2 342 )  ( + T4 314 ) ) ( <= ( + T4 324 )( + T2 329 ) ) )
(or ( <= ( + T2 405 )  ( + T4 324 ) ) ( <= ( + T4 398 )( + T2 342 ) ) )
(or ( <= ( + T2 462 )  ( + T4 398 ) ) ( <= ( + T4 415 )( + T2 405 ) ) )
(or ( <= ( + T2 65 ) T5 ) ( <= ( + T5 58 ) T2 ) )
(or ( <= ( + T2 72 )  ( + T5 58 ) ) ( <= ( + T5 148 )( + T2 65 ) ) )
(or ( <= ( + T2 74 )  ( + T5 148 ) ) ( <= ( + T5 223 )( + T2 72 ) ) )
(or ( <= ( + T2 134 )  ( + T5 223 ) ) ( <= ( + T5 234 )( + T2 74 ) ) )
(or ( <= ( + T2 209 )  ( + T5 234 ) ) ( <= ( + T5 284 )( + T2 134 ) ) )
(or ( <= ( + T2 231 )  ( + T5 284 ) ) ( <= ( + T5 285 )( + T2 209 ) ) )
(or ( <= ( + T2 329 )  ( + T5 285 ) ) ( <= ( + T5 318 )( + T2 231 ) ) )
(or ( <= ( + T2 342 )  ( + T5 318 ) ) ( <= ( + T5 417 )( + T2 329 ) ) )
(or ( <= ( + T2 405 )  ( + T5 417 ) ) ( <= ( + T5 431 )( + T2 342 ) ) )
(or ( <= ( + T2 462 )  ( + T5 431 ) ) ( <= ( + T5 478 )( + T2 405 ) ) )
(or ( <= ( + T2 65 ) T6 ) ( <= ( + T6 8 ) T2 ) )
(or ( <= ( + T2 72 )  ( + T6 8 ) ) ( <= ( + T6 46 )( + T2 65 ) ) )
(or ( <= ( + T2 74 )  ( + T6 46 ) ) ( <= ( + T6 103 )( + T2 72 ) ) )
(or ( <= ( + T2 134 )  ( + T6 103 ) ) ( <= ( + T6 162 )( + T2 74 ) ) )
(or ( <= ( + T2 209 )  ( + T6 162 ) ) ( <= ( + T6 163 )( + T2 134 ) ) )
(or ( <= ( + T2 231 )  ( + T6 163 ) ) ( <= ( + T6 241 )( + T2 209 ) ) )
(or ( <= ( + T2 329 )  ( + T6 241 ) ) ( <= ( + T6 279 )( + T2 231 ) ) )
(or ( <= ( + T2 342 )  ( + T6 279 ) ) ( <= ( + T6 320 )( + T2 329 ) ) )
(or ( <= ( + T2 405 )  ( + T6 320 ) ) ( <= ( + T6 394 )( + T2 342 ) ) )
(or ( <= ( + T2 462 )  ( + T6 394 ) ) ( <= ( + T6 416 )( + T2 405 ) ) )
(or ( <= ( + T2 65 ) T7 ) ( <= ( + T7 85 ) T2 ) )
(or ( <= ( + T2 72 )  ( + T7 85 ) ) ( <= ( + T7 105 )( + T2 65 ) ) )
(or ( <= ( + T2 74 )  ( + T7 105 ) ) ( <= ( + T7 131 )( + T2 72 ) ) )
(or ( <= ( + T2 134 )  ( + T7 131 ) ) ( <= ( + T7 173 )( + T2 74 ) ) )
(or ( <= ( + T2 209 )  ( + T7 173 ) ) ( <= ( + T7 228 )( + T2 134 ) ) )
(or ( <= ( + T2 231 )  ( + T7 228 ) ) ( <= ( + T7 276 )( + T2 209 ) ) )
(or ( <= ( + T2 329 )  ( + T7 276 ) ) ( <= ( + T7 298 )( + T2 231 ) ) )
(or ( <= ( + T2 342 )  ( + T7 298 ) ) ( <= ( + T7 323 )( + T2 329 ) ) )
(or ( <= ( + T2 405 )  ( + T7 323 ) ) ( <= ( + T7 332 )( + T2 342 ) ) )
(or ( <= ( + T2 462 )  ( + T7 332 ) ) ( <= ( + T7 379 )( + T2 405 ) ) )
(or ( <= ( + T2 65 ) T8 ) ( <= ( + T8 93 ) T2 ) )
(or ( <= ( + T2 72 )  ( + T8 93 ) ) ( <= ( + T8 111 )( + T2 65 ) ) )
(or ( <= ( + T2 74 )  ( + T8 111 ) ) ( <= ( + T8 147 )( + T2 72 ) ) )
(or ( <= ( + T2 134 )  ( + T8 147 ) ) ( <= ( + T8 215 )( + T2 74 ) ) )
(or ( <= ( + T2 209 )  ( + T8 215 ) ) ( <= ( + T8 295 )( + T2 134 ) ) )
(or ( <= ( + T2 231 )  ( + T8 295 ) ) ( <= ( + T8 332 )( + T2 209 ) ) )
(or ( <= ( + T2 329 )  ( + T8 332 ) ) ( <= ( + T8 400 )( + T2 231 ) ) )
(or ( <= ( + T2 342 )  ( + T8 400 ) ) ( <= ( + T8 412 )( + T2 329 ) ) )
(or ( <= ( + T2 405 )  ( + T8 412 ) ) ( <= ( + T8 500 )( + T2 342 ) ) )
(or ( <= ( + T2 462 )  ( + T8 500 ) ) ( <= ( + T8 533 )( + T2 405 ) ) )
(or ( <= ( + T3 73 ) T4 ) ( <= ( + T4 46 ) T3 ) )
(or ( <= ( + T3 131 )  ( + T4 46 ) ) ( <= ( + T4 51 )( + T3 73 ) ) )
(or ( <= ( + T3 183 )  ( + T4 51 ) ) ( <= ( + T4 57 )( + T3 131 ) ) )
(or ( <= ( + T3 195 )  ( + T4 57 ) ) ( <= ( + T4 141 )( + T3 183 ) ) )
(or ( <= ( + T3 217 )  ( + T4 141 ) ) ( <= ( + T4 163 )( + T3 195 ) ) )
(or ( <= ( + T3 245 )  ( + T4 163 ) ) ( <= ( + T4 243 )( + T3 217 ) ) )
(or ( <= ( + T3 286 )  ( + T4 243 ) ) ( <= ( + T4 314 )( + T3 245 ) ) )
(or ( <= ( + T3 331 )  ( + T4 314 ) ) ( <= ( + T4 324 )( + T3 286 ) ) )
(or ( <= ( + T3 364 )  ( + T4 324 ) ) ( <= ( + T4 398 )( + T3 331 ) ) )
(or ( <= ( + T3 457 )  ( + T4 398 ) ) ( <= ( + T4 415 )( + T3 364 ) ) )
(or ( <= ( + T3 73 ) T5 ) ( <= ( + T5 58 ) T3 ) )
(or ( <= ( + T3 131 )  ( + T5 58 ) ) ( <= ( + T5 148 )( + T3 73 ) ) )
(or ( <= ( + T3 183 )  ( + T5 148 ) ) ( <= ( + T5 223 )( + T3 131 ) ) )
(or ( <= ( + T3 195 )  ( + T5 223 ) ) ( <= ( + T5 234 )( + T3 183 ) ) )
(or ( <= ( + T3 217 )  ( + T5 234 ) ) ( <= ( + T5 284 )( + T3 195 ) ) )
(or ( <= ( + T3 245 )  ( + T5 284 ) ) ( <= ( + T5 285 )( + T3 217 ) ) )
(or ( <= ( + T3 286 )  ( + T5 285 ) ) ( <= ( + T5 318 )( + T3 245 ) ) )
(or ( <= ( + T3 331 )  ( + T5 318 ) ) ( <= ( + T5 417 )( + T3 286 ) ) )
(or ( <= ( + T3 364 )  ( + T5 417 ) ) ( <= ( + T5 431 )( + T3 331 ) ) )
(or ( <= ( + T3 457 )  ( + T5 431 ) ) ( <= ( + T5 478 )( + T3 364 ) ) )
(or ( <= ( + T3 73 ) T6 ) ( <= ( + T6 8 ) T3 ) )
(or ( <= ( + T3 131 )  ( + T6 8 ) ) ( <= ( + T6 46 )( + T3 73 ) ) )
(or ( <= ( + T3 183 )  ( + T6 46 ) ) ( <= ( + T6 103 )( + T3 131 ) ) )
(or ( <= ( + T3 195 )  ( + T6 103 ) ) ( <= ( + T6 162 )( + T3 183 ) ) )
(or ( <= ( + T3 217 )  ( + T6 162 ) ) ( <= ( + T6 163 )( + T3 195 ) ) )
(or ( <= ( + T3 245 )  ( + T6 163 ) ) ( <= ( + T6 241 )( + T3 217 ) ) )
(or ( <= ( + T3 286 )  ( + T6 241 ) ) ( <= ( + T6 279 )( + T3 245 ) ) )
(or ( <= ( + T3 331 )  ( + T6 279 ) ) ( <= ( + T6 320 )( + T3 286 ) ) )
(or ( <= ( + T3 364 )  ( + T6 320 ) ) ( <= ( + T6 394 )( + T3 331 ) ) )
(or ( <= ( + T3 457 )  ( + T6 394 ) ) ( <= ( + T6 416 )( + T3 364 ) ) )
(or ( <= ( + T3 73 ) T7 ) ( <= ( + T7 85 ) T3 ) )
(or ( <= ( + T3 131 )  ( + T7 85 ) ) ( <= ( + T7 105 )( + T3 73 ) ) )
(or ( <= ( + T3 183 )  ( + T7 105 ) ) ( <= ( + T7 131 )( + T3 131 ) ) )
(or ( <= ( + T3 195 )  ( + T7 131 ) ) ( <= ( + T7 173 )( + T3 183 ) ) )
(or ( <= ( + T3 217 )  ( + T7 173 ) ) ( <= ( + T7 228 )( + T3 195 ) ) )
(or ( <= ( + T3 245 )  ( + T7 228 ) ) ( <= ( + T7 276 )( + T3 217 ) ) )
(or ( <= ( + T3 286 )  ( + T7 276 ) ) ( <= ( + T7 298 )( + T3 245 ) ) )
(or ( <= ( + T3 331 )  ( + T7 298 ) ) ( <= ( + T7 323 )( + T3 286 ) ) )
(or ( <= ( + T3 364 )  ( + T7 323 ) ) ( <= ( + T7 332 )( + T3 331 ) ) )
(or ( <= ( + T3 457 )  ( + T7 332 ) ) ( <= ( + T7 379 )( + T3 364 ) ) )
(or ( <= ( + T3 73 ) T8 ) ( <= ( + T8 93 ) T3 ) )
(or ( <= ( + T3 131 )  ( + T8 93 ) ) ( <= ( + T8 111 )( + T3 73 ) ) )
(or ( <= ( + T3 183 )  ( + T8 111 ) ) ( <= ( + T8 147 )( + T3 131 ) ) )
(or ( <= ( + T3 195 )  ( + T8 147 ) ) ( <= ( + T8 215 )( + T3 183 ) ) )
(or ( <= ( + T3 217 )  ( + T8 215 ) ) ( <= ( + T8 295 )( + T3 195 ) ) )
(or ( <= ( + T3 245 )  ( + T8 295 ) ) ( <= ( + T8 332 )( + T3 217 ) ) )
(or ( <= ( + T3 286 )  ( + T8 332 ) ) ( <= ( + T8 400 )( + T3 245 ) ) )
(or ( <= ( + T3 331 )  ( + T8 400 ) ) ( <= ( + T8 412 )( + T3 286 ) ) )
(or ( <= ( + T3 364 )  ( + T8 412 ) ) ( <= ( + T8 500 )( + T3 331 ) ) )
(or ( <= ( + T3 457 )  ( + T8 500 ) ) ( <= ( + T8 533 )( + T3 364 ) ) )
(or ( <= ( + T4 46 ) T5 ) ( <= ( + T5 58 ) T4 ) )
(or ( <= ( + T4 51 )  ( + T5 58 ) ) ( <= ( + T5 148 )( + T4 46 ) ) )
(or ( <= ( + T4 57 )  ( + T5 148 ) ) ( <= ( + T5 223 )( + T4 51 ) ) )
(or ( <= ( + T4 141 )  ( + T5 223 ) ) ( <= ( + T5 234 )( + T4 57 ) ) )
(or ( <= ( + T4 163 )  ( + T5 234 ) ) ( <= ( + T5 284 )( + T4 141 ) ) )
(or ( <= ( + T4 243 )  ( + T5 284 ) ) ( <= ( + T5 285 )( + T4 163 ) ) )
(or ( <= ( + T4 314 )  ( + T5 285 ) ) ( <= ( + T5 318 )( + T4 243 ) ) )
(or ( <= ( + T4 324 )  ( + T5 318 ) ) ( <= ( + T5 417 )( + T4 314 ) ) )
(or ( <= ( + T4 398 )  ( + T5 417 ) ) ( <= ( + T5 431 )( + T4 324 ) ) )
(or ( <= ( + T4 415 )  ( + T5 431 ) ) ( <= ( + T5 478 )( + T4 398 ) ) )
(or ( <= ( + T4 46 ) T6 ) ( <= ( + T6 8 ) T4 ) )
(or ( <= ( + T4 51 )  ( + T6 8 ) ) ( <= ( + T6 46 )( + T4 46 ) ) )
(or ( <= ( + T4 57 )  ( + T6 46 ) ) ( <= ( + T6 103 )( + T4 51 ) ) )
(or ( <= ( + T4 141 )  ( + T6 103 ) ) ( <= ( + T6 162 )( + T4 57 ) ) )
(or ( <= ( + T4 163 )  ( + T6 162 ) ) ( <= ( + T6 163 )( + T4 141 ) ) )
(or ( <= ( + T4 243 )  ( + T6 163 ) ) ( <= ( + T6 241 )( + T4 163 ) ) )
(or ( <= ( + T4 314 )  ( + T6 241 ) ) ( <= ( + T6 279 )( + T4 243 ) ) )
(or ( <= ( + T4 324 )  ( + T6 279 ) ) ( <= ( + T6 320 )( + T4 314 ) ) )
(or ( <= ( + T4 398 )  ( + T6 320 ) ) ( <= ( + T6 394 )( + T4 324 ) ) )
(or ( <= ( + T4 415 )  ( + T6 394 ) ) ( <= ( + T6 416 )( + T4 398 ) ) )
(or ( <= ( + T4 46 ) T7 ) ( <= ( + T7 85 ) T4 ) )
(or ( <= ( + T4 51 )  ( + T7 85 ) ) ( <= ( + T7 105 )( + T4 46 ) ) )
(or ( <= ( + T4 57 )  ( + T7 105 ) ) ( <= ( + T7 131 )( + T4 51 ) ) )
(or ( <= ( + T4 141 )  ( + T7 131 ) ) ( <= ( + T7 173 )( + T4 57 ) ) )
(or ( <= ( + T4 163 )  ( + T7 173 ) ) ( <= ( + T7 228 )( + T4 141 ) ) )
(or ( <= ( + T4 243 )  ( + T7 228 ) ) ( <= ( + T7 276 )( + T4 163 ) ) )
(or ( <= ( + T4 314 )  ( + T7 276 ) ) ( <= ( + T7 298 )( + T4 243 ) ) )
(or ( <= ( + T4 324 )  ( + T7 298 ) ) ( <= ( + T7 323 )( + T4 314 ) ) )
(or ( <= ( + T4 398 )  ( + T7 323 ) ) ( <= ( + T7 332 )( + T4 324 ) ) )
(or ( <= ( + T4 415 )  ( + T7 332 ) ) ( <= ( + T7 379 )( + T4 398 ) ) )
(or ( <= ( + T4 46 ) T8 ) ( <= ( + T8 93 ) T4 ) )
(or ( <= ( + T4 51 )  ( + T8 93 ) ) ( <= ( + T8 111 )( + T4 46 ) ) )
(or ( <= ( + T4 57 )  ( + T8 111 ) ) ( <= ( + T8 147 )( + T4 51 ) ) )
(or ( <= ( + T4 141 )  ( + T8 147 ) ) ( <= ( + T8 215 )( + T4 57 ) ) )
(or ( <= ( + T4 163 )  ( + T8 215 ) ) ( <= ( + T8 295 )( + T4 141 ) ) )
(or ( <= ( + T4 243 )  ( + T8 295 ) ) ( <= ( + T8 332 )( + T4 163 ) ) )
(or ( <= ( + T4 314 )  ( + T8 332 ) ) ( <= ( + T8 400 )( + T4 243 ) ) )
(or ( <= ( + T4 324 )  ( + T8 400 ) ) ( <= ( + T8 412 )( + T4 314 ) ) )
(or ( <= ( + T4 398 )  ( + T8 412 ) ) ( <= ( + T8 500 )( + T4 324 ) ) )
(or ( <= ( + T4 415 )  ( + T8 500 ) ) ( <= ( + T8 533 )( + T4 398 ) ) )
(or ( <= ( + T5 58 ) T6 ) ( <= ( + T6 8 ) T5 ) )
(or ( <= ( + T5 148 )  ( + T6 8 ) ) ( <= ( + T6 46 )( + T5 58 ) ) )
(or ( <= ( + T5 223 )  ( + T6 46 ) ) ( <= ( + T6 103 )( + T5 148 ) ) )
(or ( <= ( + T5 234 )  ( + T6 103 ) ) ( <= ( + T6 162 )( + T5 223 ) ) )
(or ( <= ( + T5 284 )  ( + T6 162 ) ) ( <= ( + T6 163 )( + T5 234 ) ) )
(or ( <= ( + T5 285 )  ( + T6 163 ) ) ( <= ( + T6 241 )( + T5 284 ) ) )
(or ( <= ( + T5 318 )  ( + T6 241 ) ) ( <= ( + T6 279 )( + T5 285 ) ) )
(or ( <= ( + T5 417 )  ( + T6 279 ) ) ( <= ( + T6 320 )( + T5 318 ) ) )
(or ( <= ( + T5 431 )  ( + T6 320 ) ) ( <= ( + T6 394 )( + T5 417 ) ) )
(or ( <= ( + T5 478 )  ( + T6 394 ) ) ( <= ( + T6 416 )( + T5 431 ) ) )
(or ( <= ( + T5 58 ) T7 ) ( <= ( + T7 85 ) T5 ) )
(or ( <= ( + T5 148 )  ( + T7 85 ) ) ( <= ( + T7 105 )( + T5 58 ) ) )
(or ( <= ( + T5 223 )  ( + T7 105 ) ) ( <= ( + T7 131 )( + T5 148 ) ) )
(or ( <= ( + T5 234 )  ( + T7 131 ) ) ( <= ( + T7 173 )( + T5 223 ) ) )
(or ( <= ( + T5 284 )  ( + T7 173 ) ) ( <= ( + T7 228 )( + T5 234 ) ) )
(or ( <= ( + T5 285 )  ( + T7 228 ) ) ( <= ( + T7 276 )( + T5 284 ) ) )
(or ( <= ( + T5 318 )  ( + T7 276 ) ) ( <= ( + T7 298 )( + T5 285 ) ) )
(or ( <= ( + T5 417 )  ( + T7 298 ) ) ( <= ( + T7 323 )( + T5 318 ) ) )
(or ( <= ( + T5 431 )  ( + T7 323 ) ) ( <= ( + T7 332 )( + T5 417 ) ) )
(or ( <= ( + T5 478 )  ( + T7 332 ) ) ( <= ( + T7 379 )( + T5 431 ) ) )
(or ( <= ( + T5 58 ) T8 ) ( <= ( + T8 93 ) T5 ) )
(or ( <= ( + T5 148 )  ( + T8 93 ) ) ( <= ( + T8 111 )( + T5 58 ) ) )
(or ( <= ( + T5 223 )  ( + T8 111 ) ) ( <= ( + T8 147 )( + T5 148 ) ) )
(or ( <= ( + T5 234 )  ( + T8 147 ) ) ( <= ( + T8 215 )( + T5 223 ) ) )
(or ( <= ( + T5 284 )  ( + T8 215 ) ) ( <= ( + T8 295 )( + T5 234 ) ) )
(or ( <= ( + T5 285 )  ( + T8 295 ) ) ( <= ( + T8 332 )( + T5 284 ) ) )
(or ( <= ( + T5 318 )  ( + T8 332 ) ) ( <= ( + T8 400 )( + T5 285 ) ) )
(or ( <= ( + T5 417 )  ( + T8 400 ) ) ( <= ( + T8 412 )( + T5 318 ) ) )
(or ( <= ( + T5 431 )  ( + T8 412 ) ) ( <= ( + T8 500 )( + T5 417 ) ) )
(or ( <= ( + T5 478 )  ( + T8 500 ) ) ( <= ( + T8 533 )( + T5 431 ) ) )
(or ( <= ( + T6 8 ) T7 ) ( <= ( + T7 85 ) T6 ) )
(or ( <= ( + T6 46 )  ( + T7 85 ) ) ( <= ( + T7 105 )( + T6 8 ) ) )
(or ( <= ( + T6 103 )  ( + T7 105 ) ) ( <= ( + T7 131 )( + T6 46 ) ) )
(or ( <= ( + T6 162 )  ( + T7 131 ) ) ( <= ( + T7 173 )( + T6 103 ) ) )
(or ( <= ( + T6 163 )  ( + T7 173 ) ) ( <= ( + T7 228 )( + T6 162 ) ) )
(or ( <= ( + T6 241 )  ( + T7 228 ) ) ( <= ( + T7 276 )( + T6 163 ) ) )
(or ( <= ( + T6 279 )  ( + T7 276 ) ) ( <= ( + T7 298 )( + T6 241 ) ) )
(or ( <= ( + T6 320 )  ( + T7 298 ) ) ( <= ( + T7 323 )( + T6 279 ) ) )
(or ( <= ( + T6 394 )  ( + T7 323 ) ) ( <= ( + T7 332 )( + T6 320 ) ) )
(or ( <= ( + T6 416 )  ( + T7 332 ) ) ( <= ( + T7 379 )( + T6 394 ) ) )
(or ( <= ( + T6 8 ) T8 ) ( <= ( + T8 93 ) T6 ) )
(or ( <= ( + T6 46 )  ( + T8 93 ) ) ( <= ( + T8 111 )( + T6 8 ) ) )
(or ( <= ( + T6 103 )  ( + T8 111 ) ) ( <= ( + T8 147 )( + T6 46 ) ) )
(or ( <= ( + T6 162 )  ( + T8 147 ) ) ( <= ( + T8 215 )( + T6 103 ) ) )
(or ( <= ( + T6 163 )  ( + T8 215 ) ) ( <= ( + T8 295 )( + T6 162 ) ) )
(or ( <= ( + T6 241 )  ( + T8 295 ) ) ( <= ( + T8 332 )( + T6 163 ) ) )
(or ( <= ( + T6 279 )  ( + T8 332 ) ) ( <= ( + T8 400 )( + T6 241 ) ) )
(or ( <= ( + T6 320 )  ( + T8 400 ) ) ( <= ( + T8 412 )( + T6 279 ) ) )
(or ( <= ( + T6 394 )  ( + T8 412 ) ) ( <= ( + T8 500 )( + T6 320 ) ) )
(or ( <= ( + T6 416 )  ( + T8 500 ) ) ( <= ( + T8 533 )( + T6 394 ) ) )
(or ( <= ( + T7 85 ) T8 ) ( <= ( + T8 93 ) T7 ) )
(or ( <= ( + T7 105 )  ( + T8 93 ) ) ( <= ( + T8 111 )( + T7 85 ) ) )
(or ( <= ( + T7 131 )  ( + T8 111 ) ) ( <= ( + T8 147 )( + T7 105 ) ) )
(or ( <= ( + T7 173 )  ( + T8 147 ) ) ( <= ( + T8 215 )( + T7 131 ) ) )
(or ( <= ( + T7 228 )  ( + T8 215 ) ) ( <= ( + T8 295 )( + T7 173 ) ) )
(or ( <= ( + T7 276 )  ( + T8 295 ) ) ( <= ( + T8 332 )( + T7 228 ) ) )
(or ( <= ( + T7 298 )  ( + T8 332 ) ) ( <= ( + T8 400 )( + T7 276 ) ) )
(or ( <= ( + T7 323 )  ( + T8 400 ) ) ( <= ( + T8 412 )( + T7 298 ) ) )
(or ( <= ( + T7 332 )  ( + T8 412 ) ) ( <= ( + T8 500 )( + T7 323 ) ) )
(or ( <= ( + T7 379 )  ( + T8 500 ) ) ( <= ( + T8 533 )( + T7 332 ) ) )
( <= ( + T1 472 ) Z)
( <= ( + T2 462 ) Z)
( <= ( + T3 457 ) Z)
( <= ( + T4 415 ) Z)
( <= ( + T5 478 ) Z)
( <= ( + T6 416 ) Z)
( <= ( + T7 379 ) Z)
( <= ( + T8 533 ) Z)
( >= T1 0 )
( >= T2 0 )
( >= T3 0 )
( >= T4 0 )
( >= T5 0 )
( >= T6 0 )
( >= T7 0 )
( >= T8 0 )
) )
(minimize Z)
(check-sat)